* #variable= 8 #constraint= 10
* Defense
+3 x1 +4 x2 -5 x7 >= 0 ;
-3 x1 -4 x2 -5 x7 +15 x7 >= -5 ;
+3 x5 +4 x6 +5 x3 -15 x3 >= -8 ;
+5 x3 -2 x8 >= 0 ;
-5 x3 -2 x8 +15 x8 >= -2 ;
+5 x7 +2 x4 -15 x4 >= -10 ;
* Weak Conflict Free
+1 x1 +1 ~x1 >= 1 ;
+1 x2 +1 ~x2 >= 1 ;
-3 x1 -4 x2 +5 x3 +8 ~x3 >= 0 ;
-5 x3 +2 x4 +6 ~x4 >= 0 ;